; benchmark generated from python API
(set-info :status unknown)
(declare-fun DISJ_W_S2_R_S1 () Bool)
(declare-fun W_S2_V3 () Bool)
(declare-fun W_S2_V5 () Bool)
(declare-fun R_S2_V4 () Bool)
(declare-fun DISJ_W_S1_R_S2 () Bool)
(declare-fun W_S1_V4 () Bool)
(declare-fun W_S1_V5 () Bool)
(declare-fun R_S1_V4 () Bool)
(declare-fun R_S1_V5 () Bool)
(declare-fun DISJ_W_S1_R_S1 () Bool)
(declare-fun R_S2_V3 () Bool)
(declare-fun R_S1_V1 () Bool)
(declare-fun DISJ_W_S1_W_S2 () Bool)
(declare-fun DISJ_W_S2_R_S2 () Bool)
(declare-fun R_E1_V4 () Bool)
(declare-fun R_E1_V5 () Bool)
(declare-fun W_S2_V2 () Bool)
(declare-fun W_S2_V1 () Bool)
(declare-fun R_S2_V5 () Bool)
(declare-fun R_S2_V2 () Bool)
(declare-fun R_S2_V1 () Bool)
(declare-fun R_S1_V2 () Bool)
(declare-fun R_S1_V3 () Bool)
(declare-fun R_E1_V2 () Bool)
(declare-fun DISJ_W_S2_R_E1 () Bool)
(declare-fun R_E1_V3 () Bool)
(declare-fun W_S2_V4 () Bool)
(declare-fun W_S1_V3 () Bool)
(declare-fun W_S1_V2 () Bool)
(declare-fun W_S1_V1 () Bool)
(declare-fun R_E1_V1 () Bool)
(declare-fun DISJ_W_S1_R_E1 () Bool)
(assert
 (let (($x107 (not W_S2_V3)))
 (let (($x1233 (not W_S2_V5)))
 (let (($x2347 (not R_S2_V4)))
 (let (($x228 (and $x2347 $x1233 $x107 DISJ_W_S2_R_S1)))
 (let (($x3384 (not $x228)))
 (let (($x1784 (not W_S1_V4)))
 (let (($x1862 (not W_S1_V5)))
 (let (($x5363 (not R_S1_V4)))
 (let (($x1344 (not R_S1_V5)))
 (let (($x94 (not (and $x1344 $x5363 $x1862 $x1784 DISJ_W_S1_R_S2))))
 (let (($x3420 (not (and $x5363 $x1862 $x1784 $x1233 DISJ_W_S1_R_S2))))
 (let (($x277 (not R_S2_V3)))
 (let (($x572 (not R_S1_V1)))
 (let (($x1091 (not (and $x572 $x277 $x1784 $x1233 DISJ_W_S2_R_S1 DISJ_W_S1_R_S1))))
 (let (($x4904 (and $x277 $x2347 $x1233 DISJ_W_S2_R_S1)))
 (let (($x3318 (not $x4904)))
 (let (($x5232 (and DISJ_W_S1_R_S2 DISJ_W_S2_R_S1)))
 (let (($x542 (not $x5232)))
 (let (($x606 (not (and $x572 DISJ_W_S2_R_S1 DISJ_W_S1_W_S2 DISJ_W_S1_R_S1))))
 (let (($x3182 (and DISJ_W_S2_R_S1 DISJ_W_S2_R_S2)))
 (let (($x4563 (not $x3182)))
 (let (($x2106 (not (and W_S1_V4 R_E1_V4))))
 (let (($x5181 (not (and W_S1_V5 R_E1_V5))))
 (let (($x3005 (forall ((V3_0 Int) )(forall ((V2_0 Int) )(forall ((V5_0 Int) )(forall ((V4_0 Int) )(forall ((MW_S1_V1 Bool) )(forall ((MW_S1_V3 Bool) )(forall ((MW_S1_V2 Bool) )(forall ((MW_S1_V5 Bool) )(forall ((MW_S1_V4 Bool) )(forall ((MW_S2_V1 Bool) )(forall ((MW_S2_V3 Bool) )(forall ((MW_S2_V2 Bool) )(forall ((MW_S2_V5 Bool) )(forall ((MW_S2_V4 Bool) )(forall ((S1_V1_!6074 Int) )(forall ((S1_V1_!6084 Int) )(forall ((S1_V1_!6095 Int) )(forall ((S1_V1_!6100 Int) )(forall ((S2_V5_!6082 Int) )(forall ((S2_V5_!6092 Int) )(forall ((S2_V5_!6109 Int) )(forall ((S2_V5_!6114 Int) )(forall ((S1_V3_!6075 Int) )(forall ((S1_V3_!6085 Int) )(forall ((S1_V3_!6096 Int) )(forall ((S1_V3_!6101 Int) )(forall ((S1_V2_!6076 Int) )(forall ((S1_V2_!6086 Int) )(forall ((S1_V2_!6097 Int) )(forall ((S1_V2_!6102 Int) )(forall ((E1_!6073 Int) )(forall ((E1_!6094 Int) )(forall ((E1_!6105 Int) )(forall ((S2_V4_!6083 Int) )(forall ((S2_V4_!6093 Int) )(forall ((S2_V4_!6110 Int) )(forall ((S2_V4_!6115 Int) )(forall ((S1_V5_!6077 Int) )(forall ((S1_V5_!6087 Int) )(forall ((S1_V5_!6098 Int) )(forall ((S1_V5_!6103 Int) )(forall ((S2_V1_!6079 Int) )(forall ((S2_V1_!6089 Int) )(forall ((S2_V1_!6106 Int) )(forall ((S2_V1_!6111 Int) )(forall ((S1_V4_!6078 Int) )(forall ((S1_V4_!6088 Int) )(forall ((S1_V4_!6099 Int) )(forall ((S1_V4_!6104 Int) )(forall ((S2_V2_!6081 Int) )(forall ((S2_V2_!6091 Int) )(forall ((S2_V2_!6108 Int) )(forall ((S2_V2_!6113 Int) )(forall ((S2_V3_!6080 Int) )(forall ((S2_V3_!6090 Int) )(forall ((S2_V3_!6107 Int) )(forall ((S2_V3_!6112 Int) )(let (($x3919 (= (ite MW_S2_V4 S2_V4_!6093 (ite MW_S1_V4 S1_V4_!6088 (ite MW_S2_V4 S2_V4_!6083 (ite MW_S1_V4 S1_V4_!6078 V4_0)))) (ite MW_S2_V4 S2_V4_!6115 (ite MW_S1_V4 S1_V4_!6104 V4_0)))))
 (let (($x1019 (= (ite MW_S2_V5 S2_V5_!6092 (ite MW_S1_V5 S1_V5_!6087 (ite MW_S2_V5 S2_V5_!6082 (ite MW_S1_V5 S1_V5_!6077 V5_0)))) (ite MW_S2_V5 S2_V5_!6114 (ite MW_S1_V5 S1_V5_!6103 V5_0)))))
 (let ((?x1875 (ite MW_S1_V2 S1_V2_!6102 V2_0)))
 (let ((?x3051 (ite MW_S2_V2 S2_V2_!6113 ?x1875)))
 (let ((?x1964 (ite MW_S1_V2 S1_V2_!6076 V2_0)))
 (let ((?x1978 (ite MW_S2_V2 S2_V2_!6081 ?x1964)))
 (let ((?x3111 (ite MW_S1_V2 S1_V2_!6086 ?x1978)))
 (let ((?x2088 (ite MW_S2_V2 S2_V2_!6091 ?x3111)))
 (let (($x4882 (= (ite MW_S2_V3 S2_V3_!6090 (ite MW_S1_V3 S1_V3_!6085 (ite MW_S2_V3 S2_V3_!6080 (ite MW_S1_V3 S1_V3_!6075 V3_0)))) (ite MW_S2_V3 S2_V3_!6112 (ite MW_S1_V3 S1_V3_!6101 V3_0)))))
 (let ((?x2794 (ite MW_S2_V1 S2_V1_!6106 E1_!6105)))
 (let ((?x4421 (+ 1 ?x2794)))
 (let ((?x1329 (ite MW_S2_V1 S2_V1_!6111 ?x4421)))
 (let ((?x991 (ite MW_S1_V1 S1_V1_!6074 E1_!6073)))
 (let ((?x3827 (ite MW_S2_V1 S2_V1_!6079 ?x991)))
 (let ((?x1509 (+ 1 ?x3827)))
 (let ((?x3189 (ite MW_S1_V1 S1_V1_!6084 ?x1509)))
 (let ((?x1060 (ite MW_S2_V1 S2_V1_!6089 ?x3189)))
 (let (($x5736 (>= (ite MW_S1_V1 S1_V1_!6100 (+ 1 (ite MW_S1_V1 S1_V1_!6095 E1_!6094))) (+ (- 1) ?x1875))))
 (let (($x2654 (and (not (<= V2_0 E1_!6073)) (not (<= ?x1978 ?x1509)) (>= ?x1060 (+ (- 1) ?x2088)) (not (<= V2_0 E1_!6094)) (not (<= (ite MW_S1_V2 S1_V2_!6097 V2_0) (+ 1 (ite MW_S1_V1 S1_V1_!6095 E1_!6094)))) $x5736 (not (<= ?x1875 E1_!6105)) (not (<= (ite MW_S2_V2 S2_V2_!6108 ?x1875) ?x4421)) (>= ?x1329 (+ (- 1) ?x3051)))))
 (let (($x1480 (= S2_V3_!6112 S2_V3_!6090)))
 (let ((?x6056 (ite MW_S1_V4 S1_V4_!6078 V4_0)))
 (let ((?x5856 (ite MW_S2_V4 S2_V4_!6083 ?x6056)))
 (let ((?x1585 (ite MW_S1_V4 S1_V4_!6088 ?x5856)))
 (let ((?x164 (ite MW_S1_V4 S1_V4_!6104 V4_0)))
 (let ((?x1751 (ite MW_S2_V4 S2_V4_!6110 ?x164)))
 (let (($x2347 (not R_S2_V4)))
 (let ((?x3410 (ite MW_S1_V5 S1_V5_!6077 V5_0)))
 (let ((?x140 (ite MW_S2_V5 S2_V5_!6082 ?x3410)))
 (let ((?x6075 (ite MW_S1_V5 S1_V5_!6087 ?x140)))
 (let ((?x2719 (ite MW_S1_V5 S1_V5_!6103 V5_0)))
 (let ((?x1259 (ite MW_S2_V5 S2_V5_!6109 ?x2719)))
 (let (($x5362 (not R_S2_V5)))
 (let ((?x2021 (ite MW_S1_V3 S1_V3_!6075 V3_0)))
 (let ((?x4841 (ite MW_S2_V3 S2_V3_!6080 ?x2021)))
 (let ((?x5370 (ite MW_S1_V3 S1_V3_!6085 ?x4841)))
 (let ((?x4718 (ite MW_S1_V3 S1_V3_!6101 V3_0)))
 (let ((?x3073 (ite MW_S2_V3 S2_V3_!6107 ?x4718)))
 (let (($x277 (not R_S2_V3)))
 (let (($x5594 (and (or (not R_S2_V1) (= ?x2794 (+ (- 1) ?x3189))) (or $x277 (= ?x3073 ?x5370)) (or (not R_S2_V2) (= (ite MW_S2_V2 S2_V2_!6108 ?x1875) ?x3111)) (or $x5362 (= ?x1259 ?x6075)) (or $x2347 (= ?x1751 ?x1585)))))
 (let (($x1979 (not $x5594)))
 (let (($x850 (= S2_V3_!6112 S2_V3_!6080)))
 (let (($x5359 (and (or (not R_S2_V1) (= ?x2794 (+ (- 1) ?x991))) (or $x277 (= ?x3073 ?x2021)) (or (not R_S2_V2) (= (ite MW_S2_V2 S2_V2_!6108 ?x1875) ?x1964)) (or $x5362 (= ?x1259 ?x3410)) (or $x2347 (= ?x1751 ?x6056)))))
 (let (($x4437 (not $x5359)))
 (let (($x2356 (= S2_V3_!6107 S2_V3_!6112)))
 (let (($x1206 (and (or (not R_S2_V1) (= E1_!6105 ?x4421)) (or $x277 (= ?x4718 ?x3073)) (or (not R_S2_V2) (= ?x1875 (ite MW_S2_V2 S2_V2_!6108 ?x1875))) (or $x5362 (= ?x2719 ?x1259)) (or $x2347 (= ?x164 ?x1751)))))
 (let (($x3267 (= S2_V3_!6107 S2_V3_!6090)))
 (let (($x3924 (and (or (not R_S2_V1) (= E1_!6105 ?x3189)) (or $x277 (= ?x4718 ?x5370)) (or (not R_S2_V2) (= ?x1875 ?x3111)) (or $x5362 (= ?x2719 ?x6075)) (or $x2347 (= ?x164 ?x1585)))))
 (let (($x5059 (not $x3924)))
 (let (($x5049 (= S2_V3_!6107 S2_V3_!6080)))
 (let (($x1974 (and (or (not R_S2_V1) (= E1_!6105 ?x991)) (or $x277 (= ?x4718 ?x2021)) (or (not R_S2_V2) (= ?x1875 ?x1964)) (or $x5362 (= ?x2719 ?x3410)) (or $x2347 (= ?x164 ?x6056)))))
 (let (($x2089 (= S2_V3_!6090 S2_V3_!6080)))
 (let (($x3690 (and (or (not R_S2_V1) (= ?x3189 ?x991)) (or $x277 (= ?x5370 ?x2021)) (or (not R_S2_V2) (= ?x3111 ?x1964)) (or $x5362 (= ?x6075 ?x3410)) (or $x2347 (= ?x1585 ?x6056)))))
 (let (($x1629 (not $x3690)))
 (let (($x2734 (= S2_V2_!6113 S2_V2_!6108)))
 (let (($x1090 (and (or (not R_S2_V1) (= ?x2794 (+ (- 1) E1_!6105))) (or $x277 (= ?x3073 ?x4718)) (or (not R_S2_V2) (= (ite MW_S2_V2 S2_V2_!6108 ?x1875) ?x1875)) (or $x5362 (= ?x1259 ?x2719)) (or $x2347 (= ?x1751 ?x164)))))
 (let (($x4020 (not $x1090)))
 (let (($x972 (= S2_V2_!6091 S2_V2_!6108)))
 (let (($x3385 (and (or (not R_S2_V1) (= ?x3189 E1_!6105)) (or $x277 (= ?x5370 ?x4718)) (or (not R_S2_V2) (= ?x3111 ?x1875)) (or $x5362 (= ?x6075 ?x2719)) (or $x2347 (= ?x1585 ?x164)))))
 (let (($x2663 (not $x3385)))
 (let (($x6067 (= S2_V2_!6081 S2_V2_!6113)))
 (let (($x235 (and (or (not R_S2_V1) (= ?x991 ?x4421)) (or $x277 (= ?x2021 ?x3073)) (or (not R_S2_V2) (= ?x1964 (ite MW_S2_V2 S2_V2_!6108 ?x1875))) (or $x5362 (= ?x3410 ?x1259)) (or $x2347 (= ?x6056 ?x1751)))))
 (let (($x6015 (not $x235)))
 (let (($x1072 (= S2_V2_!6081 S2_V2_!6108)))
 (let (($x954 (and (or (not R_S2_V1) (= ?x991 E1_!6105)) (or $x277 (= ?x2021 ?x4718)) (or (not R_S2_V2) (= ?x1964 ?x1875)) (or $x5362 (= ?x3410 ?x2719)) (or $x2347 (= ?x6056 ?x164)))))
 (let (($x3934 (not $x954)))
 (let (($x43 (= S2_V2_!6081 S2_V2_!6091)))
 (let (($x566 (and (or (not R_S2_V1) (= ?x991 ?x3189)) (or $x277 (= ?x2021 ?x5370)) (or (not R_S2_V2) (= ?x1964 ?x3111)) (or $x5362 (= ?x3410 ?x6075)) (or $x2347 (= ?x6056 ?x1585)))))
 (let (($x2666 (not $x566)))
 (let (($x151 (= S1_V4_!6104 S1_V4_!6088)))
 (let (($x876 (and (or (not R_S1_V1) (= (ite MW_S1_V1 S1_V1_!6095 E1_!6094) ?x3827)) (or (not R_S1_V3) (= (ite MW_S1_V3 S1_V3_!6096 V3_0) ?x4841)) (or (not R_S1_V2) (= (ite MW_S1_V2 S1_V2_!6097 V2_0) ?x1978)) (or (not R_S1_V5) (= (ite MW_S1_V5 S1_V5_!6098 V5_0) ?x140)) (or (not R_S1_V4) (= (ite MW_S1_V4 S1_V4_!6099 V4_0) ?x5856)))))
 (let (($x6074 (not $x876)))
 (let (($x5363 (not R_S1_V4)))
 (let (($x751 (or $x5363 (= (ite MW_S1_V4 S1_V4_!6099 V4_0) V4_0))))
 (let (($x1344 (not R_S1_V5)))
 (let (($x5752 (or $x1344 (= (ite MW_S1_V5 S1_V5_!6098 V5_0) V5_0))))
 (let (($x3728 (not R_S1_V2)))
 (let (($x5106 (or $x3728 (= (ite MW_S1_V2 S1_V2_!6097 V2_0) V2_0))))
 (let (($x1051 (not R_S1_V3)))
 (let (($x2291 (or $x1051 (= (ite MW_S1_V3 S1_V3_!6096 V3_0) V3_0))))
 (let (($x5250 (and (or (not R_S1_V1) (= (ite MW_S1_V1 S1_V1_!6095 E1_!6094) (+ (- 1) E1_!6073))) $x2291 $x5106 $x5752 $x751)))
 (let (($x1305 (not $x5250)))
 (let (($x4270 (or $x5363 (= V4_0 (ite MW_S1_V4 S1_V4_!6099 V4_0)))))
 (let (($x2618 (or $x1344 (= V5_0 (ite MW_S1_V5 S1_V5_!6098 V5_0)))))
 (let (($x2527 (or $x3728 (= V2_0 (ite MW_S1_V2 S1_V2_!6097 V2_0)))))
 (let (($x5907 (or $x1051 (= V3_0 (ite MW_S1_V3 S1_V3_!6096 V3_0)))))
 (let (($x1137 (and (or (not R_S1_V1) (= E1_!6094 (+ 1 (ite MW_S1_V1 S1_V1_!6095 E1_!6094)))) $x5907 $x2527 $x2618 $x4270)))
 (let (($x3750 (not $x1137)))
 (let (($x3675 (= S1_V4_!6099 S1_V4_!6088)))
 (let (($x5185 (or $x5363 (= V4_0 ?x5856))))
 (let (($x3652 (or $x1344 (= V5_0 ?x140))))
 (let (($x2144 (or $x3728 (= V2_0 ?x1978))))
 (let (($x5617 (or $x1051 (= V3_0 ?x4841))))
 (let (($x754 (not (and (or (not R_S1_V1) (= E1_!6094 ?x1509)) $x5617 $x2144 $x3652 $x5185))))
 (let (($x2895 (or $x5363 (= ?x5856 V4_0))))
 (let (($x5238 (or $x1344 (= ?x140 V5_0))))
 (let (($x2202 (or $x3728 (= ?x1978 V2_0))))
 (let (($x4987 (or $x1051 (= ?x4841 V3_0))))
 (let (($x2372 (and (or (not R_S1_V1) (= ?x3827 (+ (- 1) E1_!6073))) $x4987 $x2202 $x5238 $x2895)))
 (let (($x4413 (not $x2372)))
 (let (($x5346 (= S2_V1_!6089 S2_V1_!6111)))
 (let (($x2327 (and (or (not R_S2_V1) (= ?x3189 ?x4421)) (or $x277 (= ?x5370 ?x3073)) (or (not R_S2_V2) (= ?x3111 (ite MW_S2_V2 S2_V2_!6108 ?x1875))) (or $x5362 (= ?x6075 ?x1259)) (or $x2347 (= ?x1585 ?x1751)))))
 (let (($x1177 (not $x2327)))
 (let (($x5910 (= S1_V5_!6103 S1_V5_!6098)))
 (let (($x2258 (and (or (not R_S1_V1) (= (ite MW_S1_V1 S1_V1_!6095 E1_!6094) (+ (- 1) E1_!6094))) $x2291 $x5106 $x5752 $x751)))
 (let (($x319 (not $x2258)))
 (let (($x1160 (or (not (and (or (not R_S1_V1) (= E1_!6073 ?x1509)) $x5617 $x2144 $x3652 $x5185)) (= S1_V5_!6077 S1_V5_!6087))))
 (let (($x303 (and (or (not R_E1_V2) (= ?x1875 V2_0)) (or (not R_E1_V5) (= ?x2719 V5_0)) (or (not R_E1_V4) (= ?x164 V4_0)))))
 (let (($x847 (= E1_!6073 E1_!6105)))
 (let (($x5051 (and (or (not R_E1_V2) (= V2_0 ?x1875)) (or (not R_E1_V5) (= V5_0 ?x2719)) (or (not R_E1_V4) (= V4_0 ?x164)))))
 (let (($x3238 (= E1_!6073 E1_!6094)))
 (let (($x2599 (and (or (not R_S1_V1) (= ?x3827 (ite MW_S1_V1 S1_V1_!6095 E1_!6094))) (or $x1051 (= ?x4841 (ite MW_S1_V3 S1_V3_!6096 V3_0))) (or $x3728 (= ?x1978 (ite MW_S1_V2 S1_V2_!6097 V2_0))) (or $x1344 (= ?x140 (ite MW_S1_V5 S1_V5_!6098 V5_0))) (or $x5363 (= ?x5856 (ite MW_S1_V4 S1_V4_!6099 V4_0))))))
 (let (($x3830 (not $x2599)))
 (let (($x4895 (and (or (not R_S1_V1) (= ?x3827 (+ (- 1) E1_!6094))) $x4987 $x2202 $x5238 $x2895)))
 (let (($x371 (not $x4895)))
 (let (($x3925 (and (or (not R_S1_V1) (= E1_!6073 (+ 1 (ite MW_S1_V1 S1_V1_!6095 E1_!6094)))) $x5907 $x2527 $x2618 $x4270)))
 (let (($x231 (not $x3925)))
 (let (($x3223 (and (or $x231 (= S1_V1_!6074 S1_V1_!6100)) (or $x4413 (= S1_V1_!6084 S1_V1_!6074)) (or $x371 (= S1_V1_!6084 S1_V1_!6095)) (or $x3830 (= S1_V1_!6084 S1_V1_!6100)) (or (not (or (not R_S1_V1) (= E1_!6094 E1_!6073))) (= S1_V1_!6095 S1_V1_!6074)) (or $x3750 (= S1_V1_!6095 S1_V1_!6100)) (or $x3934 (= S2_V5_!6082 S2_V5_!6109)) (or $x6015 (= S2_V5_!6082 S2_V5_!6114)) (or $x1629 (= S2_V5_!6092 S2_V5_!6082)) (or $x2663 (= S2_V5_!6092 S2_V5_!6109)) (or $x1177 (= S2_V5_!6092 S2_V5_!6114)) (or $x4020 (= S2_V5_!6114 S2_V5_!6109)) (or (not (or (not R_S1_V1) $x3238)) (= S1_V3_!6075 S1_V3_!6096)) (or $x4413 (= S1_V3_!6085 S1_V3_!6075)) (or $x371 (= S1_V3_!6085 S1_V3_!6096)) (or $x3830 (= S1_V3_!6085 S1_V3_!6101)) (or $x1305 (= S1_V3_!6101 S1_V3_!6075)) (or $x319 (= S1_V3_!6101 S1_V3_!6096)) (or $x231 (= S1_V2_!6076 S1_V2_!6102)) (or $x4413 (= S1_V2_!6086 S1_V2_!6076)) (or $x371 (= S1_V2_!6086 S1_V2_!6097)) (or $x3830 (= S1_V2_!6086 S1_V2_!6102)) (or (not (or (not R_S1_V1) (= E1_!6094 E1_!6073))) (= S1_V2_!6097 S1_V2_!6076)) (or $x3750 (= S1_V2_!6097 S1_V2_!6102)) $x3238 (or (not $x5051) $x847) (or (not $x303) (= E1_!6105 E1_!6094)) (or $x2666 (= S2_V4_!6083 S2_V4_!6093)) (or $x3934 (= S2_V4_!6083 S2_V4_!6110)) (or $x5059 (= S2_V4_!6110 S2_V4_!6093)) (or $x4437 (= S2_V4_!6115 S2_V4_!6083)) (or $x1979 (= S2_V4_!6115 S2_V4_!6093)) (or $x4020 (= S2_V4_!6115 S2_V4_!6110)) $x1160 (or (not (or (not R_S1_V1) $x3238)) (= S1_V5_!6077 S1_V5_!6098)) (or $x754 (= S1_V5_!6098 S1_V5_!6087)) (or $x1305 (= S1_V5_!6103 S1_V5_!6077)) (or $x6074 (= S1_V5_!6103 S1_V5_!6087)) (or $x319 $x5910) (or $x2666 (= S2_V1_!6079 S2_V1_!6089)) (or $x3934 (= S2_V1_!6079 S2_V1_!6106)) (or $x6015 (= S2_V1_!6079 S2_V1_!6111)) (or $x2663 (= S2_V1_!6089 S2_V1_!6106)) (or $x1177 $x5346) (or $x4020 (= S2_V1_!6111 S2_V1_!6106)) (or $x4413 (= S1_V4_!6088 S1_V4_!6078)) (or (not (or (not R_S1_V1) (= E1_!6094 E1_!6073))) (= S1_V4_!6099 S1_V4_!6078)) (or $x754 $x3675) (or $x3750 (= S1_V4_!6099 S1_V4_!6104)) (or $x1305 (= S1_V4_!6104 S1_V4_!6078)) (or $x6074 $x151) (or $x2666 $x43) (or $x3934 $x1072) (or $x6015 $x6067) (or $x2663 $x972) (or $x1979 (= S2_V2_!6113 S2_V2_!6091)) (or $x4020 $x2734) (or $x1629 $x2089) (or (not $x1974) $x5049) (or $x5059 $x3267) (or (not $x1206) $x2356) (or $x4437 $x850) (or $x1979 $x1480) (not MW_S1_V1) (not MW_S1_V2) (or (not MW_S1_V5) W_S1_V5) (or (not MW_S1_V4) W_S1_V4) (or (not MW_S2_V1) W_S2_V1) (or (not MW_S2_V3) W_S2_V3) (or (not MW_S2_V2) W_S2_V2) (or (not MW_S2_V5) W_S2_V5))))
 (or (not $x3223) (not $x2654) (and (= ?x1060 ?x1329) $x4882 (= ?x2088 ?x3051) $x1019 $x3919))))))))))))))))))))))))))))))))))))))))))))))))))))))))))))))))))))))))))))))))))))))))))))))))))))))))))))))))))))))))
 )
 )
 )
 )
 )
 )
 )
 )
 )
 )
 )
 )
 )
 )
 )
 )
 )
 )
 )
 )
 )
 )
 )
 )
 )
 )
 )
 )
 )
 )
 )
 )
 )
 )
 )
 )
 )
 )
 )
 )
 )
 )
 )
 )
 )
 )
 )
 )
 )
 )
 )
 )
 )
 )
 )
 )
 ))
 (let (($x1521 (not (or (and W_S2_V2 R_E1_V2) (and W_S2_V5 R_E1_V5) R_E1_V4))))
 (let (($x3812 (= DISJ_W_S2_R_E1 $x1521)))
 (let (($x3445 (and W_S2_V5 R_S2_V5)))
 (let (($x2813 (and W_S2_V2 R_S2_V2)))
 (let (($x2117 (and W_S2_V3 R_S2_V3)))
 (let (($x5048 (and W_S2_V1 R_S2_V1)))
 (let (($x5815 (= DISJ_W_S2_R_S2 (not (or $x5048 $x2117 $x2813 $x3445 R_S2_V4)))))
 (let (($x5912 (and W_S2_V5 R_S1_V5)))
 (let (($x781 (and W_S2_V2 R_S1_V2)))
 (let (($x2782 (and W_S2_V3 R_S1_V3)))
 (let (($x2799 (and W_S2_V1 R_S1_V1)))
 (let (($x3321 (= DISJ_W_S2_R_S1 (not (or $x2799 $x2782 $x781 $x5912 R_S1_V4)))))
 (let (($x185 (= DISJ_W_S1_W_S2 (not (or W_S2_V3 (and W_S1_V5 W_S2_V5) W_S1_V4)))))
 (let (($x5351 (not R_E1_V3)))
 (let (($x5434 (not (or R_S2_V3 (and W_S1_V5 R_S2_V5) (and W_S1_V4 R_S2_V4)))))
 (let (($x1570 (= DISJ_W_S1_R_S2 $x5434)))
 (let (($x1945 (not (or R_S1_V3 (and W_S1_V5 R_S1_V5) (and W_S1_V4 R_S1_V4)))))
 (let (($x5118 (= DISJ_W_S1_R_S1 $x1945)))
 (let (($x3368 (not W_S2_V2)))
 (let (($x3098 (not R_S2_V1)))
 (let (($x2868 (and $x3098 $x277 $x3368 $x1233 DISJ_W_S2_R_S1)))
 (let (($x5362 (not R_S2_V5)))
 (let (($x327 (and $x3098 $x5362 $x3368 $x107 DISJ_W_S2_R_S1)))
 (let (($x2989 (and $x3098 $x3368 $x1233 $x107 DISJ_W_S2_R_S1)))
 (let (($x1807 (and $x3098 $x277 $x5362 $x3368 DISJ_W_S2_R_S1)))
 (let (($x6027 (and $x3098 $x2347 $x3368 $x1233 DISJ_W_S2_R_S1)))
 (let (($x2034 (and $x3098 $x5362 $x2347 $x3368 DISJ_W_S2_R_S1)))
 (let (($x1399 (and $x3098 $x2347 $x3368 $x107 DISJ_W_S2_R_S1)))
 (let (($x4860 (and $x3098 $x277 $x2347 $x3368 DISJ_W_S2_R_S1)))
 (let (($x4668 (and $x5362 $x1784 $x107 DISJ_W_S2_R_S1)))
 (let (($x1286 (and $x5362 $x2347 $x107 DISJ_W_S2_R_S1)))
 (let (($x2964 (and $x2347 $x1862 $x107 DISJ_W_S2_R_S1)))
 (let (($x734 (and DISJ_W_S1_W_S2 DISJ_W_S2_R_S1)))
 (let (($x675 (and $x277 $x1784 $x1233 DISJ_W_S2_R_S1)))
 (let (($x5767 (and (not W_S2_V1) $x3368)))
 (let (($x630 (and $x3368 DISJ_W_S2_R_S2)))
 (let (($x3296 (or $x3182 $x630 $x5232 $x4904 $x5767 $x675 $x734 $x228 $x2964 $x1286 $x4668 $x4860 $x1399 $x2034 $x6027 $x1807 $x2989 $x327 $x2868)))
 (let (($x5919 (and $x572 DISJ_W_S1_R_S1)))
 (let (($x5778 (and $x3368 DISJ_W_S2_R_S1 DISJ_W_S1_R_S1)))
 (let (($x2369 (or $x5778 $x5767 $x5919)))
 (let (($x3312 (not W_S1_V2)))
 (let (($x590 (not W_S1_V1)))
 (let (($x4983 (not R_E1_V1)))
 (let (($x3667 (and DISJ_W_S1_R_E1 $x4983 $x590 $x3312 $x2369 $x3296 W_S1_V3 W_S2_V4 $x5118 $x1570 $x5351 $x185 $x3321 $x5815 $x3812 $x3005 $x5181 $x2106)))
 (and $x3667 $x4563 $x606 $x542 $x3318 $x1091 $x3420 $x94 $x3384))))))))))))))))))))))))))))))))))))))))))))))))))))))))))))))))))))))
(check-sat)
